c FILE: aim-50-1_6-yes1-4.cnf
c
c SOURCE: Kazuo Iwama, Eiji Miyano (miyano@cscu.kyushu-u.ac.jp),
c          and Yuichi Asahiro
c
c DESCRIPTION: Artifical instances from generator by source.  Generators
c              and more information in sat/contributed/iwama.
c
c NOTE: Satisfiable
c
p cnf 50 80
12 20 27 0
17 37 12 0
37 43 30 0
43 30 7 0
7 26 11 0
26 -39 11 0
-39 11 22 0
38 44 10 0
25 18 35 0
41 19 4 0
19 4 6 0
40 9 45 0
45 32 36 0
1 8 18 0
49 21 34 0
22 48 25 0
18 35 33 0
42 23 41 0
14 38 10 0
34 43 42 0
23 20 20 0
13 8 37 0
15 16 29 0
16 21 29 0
16 21 29 0
15 -46 29 0
15 29 -46 0
15 20 30 0
15 20 30 0
15 20 27 0
12 20 27 0
12 15 17 0
12 17 37 0
12 17 30 0
30 37 43 0
43 30 7 0
7 11 43 0
7 11 26 0
11 26 -39 0
3 26 -39 0
-39 11 22 0
2 3 22 0